
Gurobi 13.0.2 (win64) logging started Thu Jul 23 16:57:25 2026

Set parameter LogFile to value "E:\codes\ExactEBRP\results\gf_gurobi_performance_recovery_round29\runs\stage2__moderate_seed5301__c3_replica__300s\external\native_logs\R.0.0.0.1.1.0.0_lp.gurobi.log"
Gurobi Optimizer version 13.0.2 build v13.0.2rc1 (win64 - Windows 10.0 (19045.2))

CPU model: 12th Gen Intel(R) Core(TM) i7-12700KF, instruction set [SSE2|AVX|AVX2]
Thread count: 12 physical cores, 20 logical processors, using up to 1 threads

Non-default parameters:
TimeLimit  157.6459924
MIPGap  0
MIPGapAbs  0
LogToConsole  0
Threads  1

Optimize a model with 11944 rows, 3386 columns and 67436 nonzeros (Min)
Model fingerprint: 0x6a4a326e
Model has 21 linear objective coefficients
Coefficient statistics:
  Matrix range     [9e-03, 1e+04]
  Objective range  [9e-03, 1e+00]
  Bounds range     [2e-02, 2e+02]
  RHS range        [2e-02, 5e+04]

Presolve removed 545 rows and 102 columns
Presolve time: 0.03s
Presolved: 11399 rows, 3400 columns, 65843 nonzeros

Iteration    Objective       Primal Inf.    Dual Inf.      Time
       0    1.5830375e-02   2.212544e+02   0.000000e+00      0s
    3911    8.1515827e-02   0.000000e+00   0.000000e+00      0s

Solved in 3911 iterations and 0.34 seconds (1.02 work units)
Optimal objective  8.151582724e-02

User-callback calls 4054, time in user-callback 0.00 sec
